interval = 60;
days = 7;
demand = [6,6,6,6,6,11,14,18,18,22,28,32,32,30,28,32,29,20,19,19,15,7,10,18,18,18,18,18,18,20,20,20,17,20,26,32,32,31,29,33,28,20,17,17,13,8,6,14,14,14,14,14,13,15,15,18,15,18,24,28,28,31,29,33,30,22,21,21,17,7,7,15,15,15,15,15,15,17,17,18,15,18,24,28,28,31,29,33,30,22,21,21,17,7,10,13,13,13,13,13,13,15,17,15,12,15,21,25,25,28,29,33,30,22,21,21,17,7,10,18,18,18,18,18,18,19,19,18,16,19,28,32,32,39,36,39,36,28,24,24,20,12,6,6,6,6,6,6,6,7,10,12,13,16,25,29,29,36,36,39,36,28,24,24,20,12,6,6];
shiftTypes = 4;
minStart = [5, 9, 13, 21];
maxStart = [8, 11, 15, 23];
minLength = [7, 7, 7, 7];
maxLength = [9, 9, 9, 9];
minDuties = 4.8;
maxDuties = 5;
avgMinutes = 2280;
weightUnderCover = 1;
weightOverCover = 1;
weightDutiesPerWeek = 0;
weightShiftInstances = 60;
